\ENCODING=ISO-8859-1
\Problem name: ilog.cplex

Minimize
 obj: 67.6643745085619 P247 + 154.78907412435 P248 + 164.503935746909 P249
      + 250.220564655404 P250 + 241.832304422609 P251 + 237.901906947184 P252
      + 254.555088487299 P253 + 250.326070784402 P254 + 255.246195070363 P255
      + 264.990925730451 P256 + 191.09122329309 P257 + 269.911050016411 P258
      + 202.624515642138 P259 + 196.01134757905 P260 + 207.544639928098 P261
      + 208.032520994538 P262 + 212.952645280498 P263 + 204.102123519113 P264
      + 209.022247805073 P265 + 151.292466683793 P266 + 164.015250748483 P267
      + 176.823038665692 P268 + 181.743162951652 P269 + 117.492683255722 P270
      + 122.412807541682 P271 + 232.514333137919 P272 + 237.434457423879 P273
      + 243.58364369976 P274 + 248.50376798572 P275 + 154.870324179796 P276
      + 166.403616528844 P277 + 171.811621881244 P278 + 167.593108244486 P279
      + 167.881224405819 P280 + 179.126400593534 P281 + 184.534405945934 P282
      + 180.305388243037 P283 + 185.225512528998 P284 + 194.970243189086 P285
      + 121.070540751725 P286 + 199.890367475046 P287 + 132.603833100773 P288
      + 125.990665037685 P289 + 137.523957386733 P290 + 138.011838453173 P291
      + 142.931962739133 P292 + 134.081440977748 P293 + 139.001565263708 P294
      + 67.2305737727683 P295 + 263.066480355665 P296 + 268.353844611808 P297
      + 257.105686822808 P298 + 262.393051078951 P299 + 276.599158246379 P300
      + 265.470925016851 P301 + 253.647753886277 P302 + 256.129518254075 P303
      + 270.638364713521 P304 + 260.380525877962 P305 + 258.93511814242 P306
      + 261.416882510218 P307 + 261.893067520848 P308 + 196.799162844104 P309
      + 188.846809176478 P310 + 263.409553107218 P311 + 263.882764844234 P312
      + 192.900540187358 P313 + 193.097816800365 P314 + 202.086527100247 P315
      + 194.134173432621 P316 + 269.662196144789 P317 + 267.877074310067 P318
      + 193.388870565853 P319 + 193.862082302869 P320 + 129.516453766507 P321
      + 197.151547811245 P322 + 204.079197697248 P323 + 198.187904443501 P324
      + 197.856391768702 P325 + 133.570184777388 P326 + 134.80381802265 P327
      + 210.331840734818 P328 + 208.546718900097 P329 + 202.379487067192 P330
      + 134.058515155882 P331 + 138.857549033531 P332 + 206.433218078072 P333
      + 138.526036358732 P334 + 143.049131657221 P335 + 221.07538762687 P336
      + 147.102862668101 P337 + 151.054705085505 P338 + 233.79817169156 P339
      + 163.777489150195 P340 + 176.585277067404 P341 + 187.275604198799 P342
      + 181.505401353364 P343 + 192.195728484759 P344 + 117.254921657434 P345
      + 122.175045943394 P346 + 266.882099449956 P347 + 272.169463706099 P348
      + 263.304241953953 P349 + 277.862603618547 P350 + 280.41477734067 P351
      + 268.591606210096 P352 + 257.343448421096 P353 + 259.849629429708 P354
      + 283.14996787469 P355 + 274.514484375757 P356 + 265.191434545483 P357
      + 262.630812677239 P358 + 201.023946420255 P359 + 265.136993685851 P360
      + 189.828946888343 P361 + 276.808178228393 P362 + 276.836919844667 P363
      + 265.708686615139 P364 + 212.148074287444 P365 + 200.614781938395 P366
      + 279.8018486319 P367 + 204.493801834392 P368 + 269.876242905163 P369
      + 267.129664282851 P370 + 270.478798801626 P371 + 291.395281509261 P372
      + 205.708754779936 P373 + 194.175462430888 P374 + 206.311310676398 P375
      + 195.116311144486 P376 + 281.7945192289 P377 + 206.294879871306 P378
      + 206.294879871306 P379 + 270.876126311809 P380 + 217.435438543587 P381
      + 205.902146194538 P382 + 142.127391746079 P383 + 130.59409939703 P384
      + 273.382307320422 P385 + 271.5971854857 P386 + 209.781166090535 P387
      + 186.346597310998 P388 + 208.303981273399 P389 + 197.108981741486 P390
      + 209.210993746209 P391 + 197.67770139716 P392 + 211.116760132336 P393
      + 288.047162266471 P394 + 286.262040431749 P395 + 219.428109140587 P396
      + 207.894816791539 P397 + 278.695370819923 P398 + 278.724112436197 P399
      + 211.582244127449 P400 + 211.582244127449 P401 + 211.773836687535 P402
      + 267.500371288011 P403 + 267.500371288011 P404 + 190.597604934884 P405
      + 214.556624310969 P406 + 212.771502476248 P407 + 147.414756002222 P408
      + 135.881463653173 P409 + 147.535397098479 P410 + 203.361624779057 P411
      + 201.576502944335 P412 + 191.633961567141 P413 + 214.618999098609 P414
      + 225.680752178158 P415 + 214.147459829109 P416 + 223.895630343436 P417
      + 212.362337994388 P418 + 127.016241901027 P419 + 218.026479725106 P420
      + 216.241357890384 P421 + 149.407426599222 P422 + 137.874134250174 P423
      + 193.626632164141 P424 + 194.099843901157 P425 + 152.822761354621 P426
      + 219.798816145746 P427 + 208.265523796698 P428 + 219.82755776202 P429
      + 143.604999623054 P430 + 264.018021710665 P431 + 264.018021710665 P432
      + 155.660069636793 P433 + 144.126777287744 P434 + 153.874947802071 P435
      + 142.341655453023 P436 + 132.30360615717 P437 + 199.879275201712 P438
      + 198.09415336699 P439 + 154.815431951622 P440 + 134.29627675417 P441
      + 148.892363879197 P442 + 161.068074989192 P443 + 159.282953154471 P444
      + 204.687666300695 P445 + 150.885034476197 P446 + 140.548919791741 P447
      + 138.76379795702 P448 + 274.129762096837 P449 + 200.892228629515 P450
      + 212.087228161427 P451 + 197.172117453881 P452 + 275.126141870519 P453
      + 201.888608403197 P454 + 213.08360793511 P455 + 198.168497227564 P456
      + 215.557083575563 P457 + 216.553463349246 P458 + 268.168968563979 P459
      + 269.165348337662 P460 + 141.657381138202 P461 + 207.862444585276 P462
      + 137.841762043911 P463 + 223.211356028615 P464 + 153.19067348725 P465
      + 118.543987771572 P466 + 142.653760911885 P467 + 208.858824358959 P468
      + 138.838141817594 P469 + 154.187053260933 P470 + 119.540367545255 P471
      + 158.59867883965 P472 + 159.595058613333 P473 + 59.2136323616019 P474
      + 60.2100121352845 P475 + 259.348454203926 P476 + 270.543453735839 P477
      + 255.628343028293 P478 + 220.169057873649 P479 + 216.353438779358 P480
      + 231.702350222698 P481 + 274.013309149975 P482 + 295.249233360577 P483
      + 222.222651231703 P484 + 211.213098325868 P485 + 196.297987618323 P486
      + 236.887506177752 P487 + 137.725309097049 P488 + 162.987803740391 P489
      + 229.192867187465 P490 + 159.1721846461 P491 + 216.621103678268 P492
      + 244.541778630804 P493 + 174.521096089439 P494 + 210.871261483859 P495
      + 179.929101441839 P496 + 80.5440549637906 P497
Subject To
 c1: P248 + P252 + P254 + P255 + P257 + P260 + P264 + P265 + P272 + P273 + P274
     + P275 + P276 + P279 + P280 + P283 + P284 + P286 + P289 + P293 + P294
     + P298 + P299 + P301 + P304 + P347 + P348 + P350 + P351 + P353 + P354
     + P355 + P358 + P360 + P361 + P364 + P366 + P370 + P372 + P374 + P376
     + P380 + P382 + P384 + P385 + P386 + P390 + P392 + P397 + P403 + P404
     + P409 + P411 + P412 + P416 + P418 + P423 + P428 + P430 + P434 + P436
     + P442 + P446 + P450 + P454 + P459 + P460 + P461 + P467 + P476 + P479
     + P484 + P489 + P495  = 1
 c1: P249 + P251 + P253 + P256 + P258 + P259 + P261 + P262 + P263 + P272 + P273
     + P274 + P275 + P277 + P278 + P281 + P282 + P285 + P287 + P288 + P290
     + P291 + P292 + P296 + P297 + P300 + P347 + P348 + P349 + P350 + P351
     + P352 + P355 + P356 + P357 + P359 + P362 + P363 + P365 + P367 + P368
     + P369 + P371 + P372 + P373 + P375 + P377 + P378 + P379 + P381 + P383
     + P387 + P389 + P391 + P393 + P394 + P395 + P396 + P398 + P399 + P400
     + P401 + P402 + P406 + P407 + P408 + P410 + P414 + P415 + P417 + P420
     + P421 + P422 + P426 + P427 + P429 + P433 + P435 + P440 + P443 + P444
     + P449 + P451 + P453 + P455 + P457 + P458 + P464 + P465 + P470 + P472
     + P473 + P477 + P481 + P482 + P483 + P485 + P487 + P492 + P493 + P494
     + P496  = 1
 c2: P250 + P251 + P252 + P253 + P254 + P255 + P256 + P257 + P258 + P259 + P260
     + P261 + P262 + P263 + P264 + P265 + P266 + P267 + P268 + P269 + P270
     + P271 + P302 + P303 + P305 + P306 + P307 + P308 + P309 + P311 + P312
     + P315 + P317 + P318 + P323 + P328 + P329 + P336 + P339 + P342 + P344
     + P349 + P352 + P353 + P354 + P356 + P358 + P360 + P362 + P363 + P364
     + P365 + P366 + P367 + P370 + P377 + P380 + P381 + P382 + P385 + P386
     + P388 + P394 + P395 + P396 + P397 + P405 + P413 + P415 + P416 + P417
     + P418 + P419 + P424 + P425 + P431 + P432 + P437 + P438 + P439 + P441
     + P445 + P447 + P448 + P462 + P464 + P468 + P490 + P493  = 1
 c3: P250 + P296 + P297 + P298 + P299 + P300 + P301 + P302 + P303 + P304 + P305
     + P306 + P307 + P308 + P309 + P310 + P311 + P312 + P313 + P314 + P315
     + P316 + P317 + P318 + P319 + P320 + P321 + P322 + P323 + P324 + P325
     + P326 + P327 + P328 + P329 + P330 + P331 + P332 + P333 + P334 + P335
     + P336 + P337 + P338 + P339 + P340 + P341 + P342 + P343 + P344 + P345
     + P346 + P449 + P452 + P453 + P456 + P459 + P460 + P462 + P463 + P468
     + P469 + P478 + P480 + P483 + P486 + P490 + P491  = 1
 c4: P250 + P449 + P450 + P451 + P452 + P453 + P454 + P455 + P456 + P457 + P458
     + P459 + P460 + P461 + P462 + P463 + P464 + P465 + P466 + P467 + P468
     + P469 + P470 + P471 + P472 + P473 + P474 + P475 + P476 + P477 + P478
     + P479 + P480 + P481 + P482 + P483 + P484 + P485 + P486 + P487 + P488
     + P489 + P490 + P491 + P492 + P493 + P494 + P495 + P496 + P497  = 1
 c5: P248 + P296 + P297 + P298 + P299 + P300 + P301 + P302 + P303 + P304 + P305
     + P306 + P307 + P308 + P309 + P310 + P313 + P314 + P315 + P316 + P317
     + P321 + P322 + P324 + P326 + P327 + P328 + P330 + P332 + P333 + P335
     + P337 + P347 + P348 + P349 + P350 + P351 + P352 + P353 + P354 + P355
     + P356 + P357 + P358 + P359 + P360 + P361 + P362 + P363 + P364 + P365
     + P366 + P367 + P368 + P369 + P371 + P372 + P373 + P374 + P375 + P376
     + P378 + P379 + P380 + P381 + P382 + P383 + P384 + P385 + P387 + P388
     + P393 + P394 + P398 + P399 + P400 + P401 + P403 + P404 + P405 + P406
     + P408 + P409 + P410 + P411 + P413 + P415 + P416 + P419 + P420 + P426
     + P427 + P428 + P429 + P430 + P431 + P432 + P433 + P434 + P437 + P438
     + P442 + P443 + P445 + P447  = 1
 c6: P247 + P251 + P252 + P253 + P254 + P255 + P256 + P258 + P266 + P267 + P268
     + P269 + P276 + P277 + P278 + P279 + P280 + P281 + P282 + P283 + P284
     + P285 + P287 + P295 + P303 + P305 + P307 + P310 + P311 + P312 + P313
     + P314 + P316 + P317 + P318 + P319 + P320 + P322 + P324 + P325 + P330
     + P333 + P336 + P338 + P339 + P340 + P341 + P343 + P354 + P356 + P357
     + P359 + P360 + P361 + P367 + P368 + P369 + P370 + P371 + P373 + P374
     + P375 + P376 + P377 + P385 + P386 + P387 + P388 + P389 + P390 + P391
     + P392 + P393 + P394 + P395 + P398 + P399 + P402 + P403 + P404 + P405
     + P406 + P407 + P411 + P412 + P413 + P414 + P420 + P421 + P424 + P425
     + P431 + P432 + P438 + P439 + P450 + P451 + P452 + P454 + P455 + P456
     + P457 + P458 + P466 + P471 + P476 + P477 + P478 + P479 + P480 + P481
     + P482 + P484 + P487 + P488  = 1
 c7: P249 + P296 + P297 + P298 + P299 + P300 + P301 + P302 + P304 + P306 + P308
     + P311 + P312 + P318 + P319 + P320 + P323 + P325 + P329 + P331 + P334
     + P347 + P348 + P349 + P350 + P351 + P352 + P353 + P355 + P357 + P358
     + P362 + P363 + P364 + P369 + P370 + P371 + P372 + P377 + P378 + P379
     + P380 + P386 + P389 + P390 + P391 + P392 + P395 + P396 + P397 + P398
     + P399 + P400 + P401 + P402 + P403 + P404 + P407 + P412 + P414 + P417
     + P418 + P421 + P422 + P423 + P424 + P425 + P427 + P428 + P429 + P431
     + P432 + P435 + P436 + P439 + P440 + P441 + P444 + P445 + P446 + P448
     + P449 + P453 + P459 + P460 + P476 + P477 + P478 + P482 + P483 + P485
     + P486 + P492 + P495  = 1
 c8: P247 + P248 + P249 + P250 + P251 + P252 + P253 + P254 + P255 + P256 + P257
     + P258 + P259 + P260 + P261 + P262 + P263 + P264 + P265 + P266 + P267
     + P268 + P269 + P270 + P271 + P272 + P273 + P274 + P275 + P276 + P277
     + P278 + P279 + P280 + P281 + P282 + P283 + P284 + P285 + P286 + P287
     + P288 + P289 + P290 + P291 + P292 + P293 + P294 + P295 + P296 + P297
     + P298 + P299 + P300 + P301 + P302 + P303 + P304 + P305 + P306 + P307
     + P308 + P309 + P310 + P311 + P312 + P313 + P314 + P315 + P316 + P317
     + P318 + P319 + P320 + P321 + P322 + P323 + P324 + P325 + P326 + P327
     + P328 + P329 + P330 + P331 + P332 + P333 + P334 + P335 + P336 + P337
     + P338 + P339 + P340 + P341 + P342 + P343 + P344 + P345 + P346 + P347
     + P348 + P349 + P350 + P351 + P352 + P353 + P354 + P355 + P356 + P357
     + P358 + P359 + P360 + P361 + P362 + P363 + P364 + P365 + P366 + P367
     + P368 + P369 + P370 + P371 + P372 + P373 + P374 + P375 + P376 + P377
     + P378 + P379 + P380 + P381 + P382 + P383 + P384 + P385 + P386 + P387
     + P388 + P389 + P390 + P391 + P392 + P393 + P394 + P395 + P396 + P397
     + P398 + P399 + P400 + P401 + P402 + P403 + P404 + P405 + P406 + P407
     + P408 + P409 + P410 + P411 + P412 + P413 + P414 + P415 + P416 + P417
     + P418 + P419 + P420 + P421 + P422 + P423 + P424 + P425 + P426 + P427
     + P428 + P429 + P430 + P431 + P432 + P433 + P434 + P435 + P436 + P437
     + P438 + P439 + P440 + P441 + P442 + P443 + P444 + P445 + P446 + P447
     + P448 + P449 + P450 + P451 + P452 + P453 + P454 + P455 + P456 + P457
     + P458 + P459 + P460 + P461 + P462 + P463 + P464 + P465 + P466 + P467
     + P468 + P469 + P470 + P471 + P472 + P473 + P474 + P475 + P476 + P477
     + P478 + P479 + P480 + P481 + P482 + P483 + P484 + P485 + P486 + P487
     + P488 + P489 + P490 + P491 + P492 + P493 + P494 + P495 + P496 + P497 <= 4
Bounds
 0 <= P247 <= 1
 0 <= P248 <= 1
 0 <= P249 <= 1
 0 <= P250 <= 1
 0 <= P251 <= 1
 0 <= P252 <= 1
 0 <= P253 <= 1
 0 <= P254 <= 1
 0 <= P255 <= 1
 0 <= P256 <= 1
 0 <= P257 <= 1
 0 <= P258 <= 1
 0 <= P259 <= 1
 0 <= P260 <= 1
 0 <= P261 <= 1
 0 <= P262 <= 1
 0 <= P263 <= 1
 0 <= P264 <= 1
 0 <= P265 <= 1
 0 <= P266 <= 1
 0 <= P267 <= 1
 0 <= P268 <= 1
 0 <= P269 <= 1
 0 <= P270 <= 1
 0 <= P271 <= 1
 0 <= P272 <= 1
 0 <= P273 <= 1
 0 <= P274 <= 1
 0 <= P275 <= 1
 0 <= P276 <= 1
 0 <= P277 <= 1
 0 <= P278 <= 1
 0 <= P279 <= 1
 0 <= P280 <= 1
 0 <= P281 <= 1
 0 <= P282 <= 1
 0 <= P283 <= 1
 0 <= P284 <= 1
 0 <= P285 <= 1
 0 <= P286 <= 1
 0 <= P287 <= 1
 0 <= P288 <= 1
 0 <= P289 <= 1
 0 <= P290 <= 1
 0 <= P291 <= 1
 0 <= P292 <= 1
 0 <= P293 <= 1
 0 <= P294 <= 1
 0 <= P295 <= 1
 0 <= P296 <= 1
 0 <= P297 <= 1
 0 <= P298 <= 1
 0 <= P299 <= 1
 0 <= P300 <= 1
 0 <= P301 <= 1
 0 <= P302 <= 1
 0 <= P303 <= 1
 0 <= P304 <= 1
 0 <= P305 <= 1
 0 <= P306 <= 1
 0 <= P307 <= 1
 0 <= P308 <= 1
 0 <= P309 <= 1
 0 <= P310 <= 1
 0 <= P311 <= 1
 0 <= P312 <= 1
 0 <= P313 <= 1
 0 <= P314 <= 1
 0 <= P315 <= 1
 0 <= P316 <= 1
 0 <= P317 <= 1
 0 <= P318 <= 1
 0 <= P319 <= 1
 0 <= P320 <= 1
 0 <= P321 <= 1
 0 <= P322 <= 1
 0 <= P323 <= 1
 0 <= P324 <= 1
 0 <= P325 <= 1
 0 <= P326 <= 1
 0 <= P327 <= 1
 0 <= P328 <= 1
 0 <= P329 <= 1
 0 <= P330 <= 1
 0 <= P331 <= 1
 0 <= P332 <= 1
 0 <= P333 <= 1
 0 <= P334 <= 1
 0 <= P335 <= 1
 0 <= P336 <= 1
 0 <= P337 <= 1
 0 <= P338 <= 1
 0 <= P339 <= 1
 0 <= P340 <= 1
 0 <= P341 <= 1
 0 <= P342 <= 1
 0 <= P343 <= 1
 0 <= P344 <= 1
 0 <= P345 <= 1
 0 <= P346 <= 1
 0 <= P347 <= 1
 0 <= P348 <= 1
 0 <= P349 <= 1
 0 <= P350 <= 1
 0 <= P351 <= 1
 0 <= P352 <= 1
 0 <= P353 <= 1
 0 <= P354 <= 1
 0 <= P355 <= 1
 0 <= P356 <= 1
 0 <= P357 <= 1
 0 <= P358 <= 1
 0 <= P359 <= 1
 0 <= P360 <= 1
 0 <= P361 <= 1
 0 <= P362 <= 1
 0 <= P363 <= 1
 0 <= P364 <= 1
 0 <= P365 <= 1
 0 <= P366 <= 1
 0 <= P367 <= 1
 0 <= P368 <= 1
 0 <= P369 <= 1
 0 <= P370 <= 1
 0 <= P371 <= 1
 0 <= P372 <= 1
 0 <= P373 <= 1
 0 <= P374 <= 1
 0 <= P375 <= 1
 0 <= P376 <= 1
 0 <= P377 <= 1
 0 <= P378 <= 1
 0 <= P379 <= 1
 0 <= P380 <= 1
 0 <= P381 <= 1
 0 <= P382 <= 1
 0 <= P383 <= 1
 0 <= P384 <= 1
 0 <= P385 <= 1
 0 <= P386 <= 1
 0 <= P387 <= 1
 0 <= P388 <= 1
 0 <= P389 <= 1
 0 <= P390 <= 1
 0 <= P391 <= 1
 0 <= P392 <= 1
 0 <= P393 <= 1
 0 <= P394 <= 1
 0 <= P395 <= 1
 0 <= P396 <= 1
 0 <= P397 <= 1
 0 <= P398 <= 1
 0 <= P399 <= 1
 0 <= P400 <= 1
 0 <= P401 <= 1
 0 <= P402 <= 1
 0 <= P403 <= 1
 0 <= P404 <= 1
 0 <= P405 <= 1
 0 <= P406 <= 1
 0 <= P407 <= 1
 0 <= P408 <= 1
 0 <= P409 <= 1
 0 <= P410 <= 1
 0 <= P411 <= 1
 0 <= P412 <= 1
 0 <= P413 <= 1
 0 <= P414 <= 1
 0 <= P415 <= 1
 0 <= P416 <= 1
 0 <= P417 <= 1
 0 <= P418 <= 1
 0 <= P419 <= 1
 0 <= P420 <= 1
 0 <= P421 <= 1
 0 <= P422 <= 1
 0 <= P423 <= 1
 0 <= P424 <= 1
 0 <= P425 <= 1
 0 <= P426 <= 1
 0 <= P427 <= 1
 0 <= P428 <= 1
 0 <= P429 <= 1
 0 <= P430 <= 1
 0 <= P431 <= 1
 0 <= P432 <= 1
 0 <= P433 <= 1
 0 <= P434 <= 1
 0 <= P435 <= 1
 0 <= P436 <= 1
 0 <= P437 <= 1
 0 <= P438 <= 1
 0 <= P439 <= 1
 0 <= P440 <= 1
 0 <= P441 <= 1
 0 <= P442 <= 1
 0 <= P443 <= 1
 0 <= P444 <= 1
 0 <= P445 <= 1
 0 <= P446 <= 1
 0 <= P447 <= 1
 0 <= P448 <= 1
 0 <= P449 <= 1
 0 <= P450 <= 1
 0 <= P451 <= 1
 0 <= P452 <= 1
 0 <= P453 <= 1
 0 <= P454 <= 1
 0 <= P455 <= 1
 0 <= P456 <= 1
 0 <= P457 <= 1
 0 <= P458 <= 1
 0 <= P459 <= 1
 0 <= P460 <= 1
 0 <= P461 <= 1
 0 <= P462 <= 1
 0 <= P463 <= 1
 0 <= P464 <= 1
 0 <= P465 <= 1
 0 <= P466 <= 1
 0 <= P467 <= 1
 0 <= P468 <= 1
 0 <= P469 <= 1
 0 <= P470 <= 1
 0 <= P471 <= 1
 0 <= P472 <= 1
 0 <= P473 <= 1
 0 <= P474 <= 1
 0 <= P475 <= 1
 0 <= P476 <= 1
 0 <= P477 <= 1
 0 <= P478 <= 1
 0 <= P479 <= 1
 0 <= P480 <= 1
 0 <= P481 <= 1
 0 <= P482 <= 1
 0 <= P483 <= 1
 0 <= P484 <= 1
 0 <= P485 <= 1
 0 <= P486 <= 1
 0 <= P487 <= 1
 0 <= P488 <= 1
 0 <= P489 <= 1
 0 <= P490 <= 1
 0 <= P491 <= 1
 0 <= P492 <= 1
 0 <= P493 <= 1
 0 <= P494 <= 1
 0 <= P495 <= 1
 0 <= P496 <= 1
 0 <= P497 <= 1
Generals
 P247  P248  P249  P250  P251  P252  P253  P254  P255  P256  P257  P258  P259 
 P260  P261  P262  P263  P264  P265  P266  P267  P268  P269  P270  P271  P272 
 P273  P274  P275  P276  P277  P278  P279  P280  P281  P282  P283  P284  P285 
 P286  P287  P288  P289  P290  P291  P292  P293  P294  P295  P296  P297  P298 
 P299  P300  P301  P302  P303  P304  P305  P306  P307  P308  P309  P310  P311 
 P312  P313  P314  P315  P316  P317  P318  P319  P320  P321  P322  P323  P324 
 P325  P326  P327  P328  P329  P330  P331  P332  P333  P334  P335  P336  P337 
 P338  P339  P340  P341  P342  P343  P344  P345  P346  P347  P348  P349  P350 
 P351  P352  P353  P354  P355  P356  P357  P358  P359  P360  P361  P362  P363 
 P364  P365  P366  P367  P368  P369  P370  P371  P372  P373  P374  P375  P376 
 P377  P378  P379  P380  P381  P382  P383  P384  P385  P386  P387  P388  P389 
 P390  P391  P392  P393  P394  P395  P396  P397  P398  P399  P400  P401  P402 
 P403  P404  P405  P406  P407  P408  P409  P410  P411  P412  P413  P414  P415 
 P416  P417  P418  P419  P420  P421  P422  P423  P424  P425  P426  P427  P428 
 P429  P430  P431  P432  P433  P434  P435  P436  P437  P438  P439  P440  P441 
 P442  P443  P444  P445  P446  P447  P448  P449  P450  P451  P452  P453  P454 
 P455  P456  P457  P458  P459  P460  P461  P462  P463  P464  P465  P466  P467 
 P468  P469  P470  P471  P472  P473  P474  P475  P476  P477  P478  P479  P480 
 P481  P482  P483  P484  P485  P486  P487  P488  P489  P490  P491  P492  P493 
 P494  P495  P496  P497 
End
